solution status: optimal solution found
objective value:                     148114.727024203
d11(0,0)                                            1 	(obj:0)
d11(1,1)                                            1 	(obj:0)
d11(1,2)                                            1 	(obj:0)
d11(2,3)                                            1 	(obj:0)
d11(2,5)                                            1 	(obj:0)
d11(2,6)                                            1 	(obj:0)
d11(3,7)                                            1 	(obj:0)
d11(3,8)                                            1 	(obj:0)
d11(3,9)                                            1 	(obj:0)
d11(3,11)                                           1 	(obj:0)
d11(3,12)                                           1 	(obj:0)
d11(3,13)                                           1 	(obj:0)
d11(3,14)                                           1 	(obj:0)
d12(4,15)                                           1 	(obj:0)
d12(4,16)                                           1 	(obj:0)
d12(4,17)                                           1 	(obj:0)
d12(4,18)                                           1 	(obj:0)
d12(4,19)                                           1 	(obj:0)
d12(4,20)                                           1 	(obj:0)
d12(4,21)                                           1 	(obj:0)
d12(4,22)                                           1 	(obj:0)
d12(4,23)                                           1 	(obj:0)
d12(4,24)                                           1 	(obj:0)
d12(4,25)                                           1 	(obj:0)
d12(4,26)                                           1 	(obj:0)
d12(4,27)                                           1 	(obj:0)
d12(4,28)                                           1 	(obj:0)
d12(4,29)                                           1 	(obj:0)
d12(4,30)                                           1 	(obj:0)
d21(2,3)                                            1 	(obj:0)
d21(3,7)                                            1 	(obj:0)
d21(3,8)                                            1 	(obj:0)
d21(3,9)                                            1 	(obj:0)
d21(3,11)                                           1 	(obj:0)
d21(4,15)                                           1 	(obj:0)
d21(4,16)                                           1 	(obj:0)
d21(4,17)                                           1 	(obj:0)
d21(4,18)                                           1 	(obj:0)
d21(4,19)                                           1 	(obj:0)
d21(4,20)                                           1 	(obj:0)
d21(4,23)                                           1 	(obj:0)
d21(4,24)                                           1 	(obj:0)
y2(4,15)                             352.894630409281 	(obj:0)
y2(4,16)                             1845.31953940922 	(obj:0)
y2(4,17)                             352.894630409281 	(obj:0)
y2(4,18)                             1845.31953940922 	(obj:0)
y2(4,19)                             352.894630409281 	(obj:0)
y2(4,20)                             1845.31953940922 	(obj:0)
y2(4,21)                             352.894630409282 	(obj:0)
y2(4,22)                             1845.31953940922 	(obj:0)
y2(4,23)                             352.894630409281 	(obj:0)
y2(4,24)                             1845.31953940922 	(obj:0)
y2(4,25)                             352.894630409281 	(obj:0)
y2(4,26)                             1845.31953940922 	(obj:0)
y2(4,27)                             352.894630409316 	(obj:0)
y2(4,28)                             1845.31953940922 	(obj:0)
y2(4,29)                             352.894630409281 	(obj:0)
y2(4,30)                             1845.31953940922 	(obj:0)
STE(1,1)                             2688.75010111118 	(obj:0)
STE(0,0)                                         4725 	(obj:0)
STE(1,2)                                         4347 	(obj:0)
STE(2,3)                             652.500202222337 	(obj:0)
STE(2,4)                             2310.75010111118 	(obj:0)
STE(2,5)                             2310.75010111123 	(obj:0)
STE(2,6)                             3968.99999999997 	(obj:0)
STE(3,7)                            -1383.74969666651 	(obj:0)
STE(3,8)                             274.500202222308 	(obj:0)
STE(3,9)                             274.500202222337 	(obj:0)
STE(3,10)                            1932.75010111118 	(obj:0)
STE(3,11)                            274.500202222388 	(obj:0)
STE(3,12)                            1932.75010111121 	(obj:0)
STE(3,13)                            1932.75010111113 	(obj:0)
STE(3,14)                            3590.99999999994 	(obj:0)
STE(4,15)                           -1426.49979777769 	(obj:0)
STE(4,16)                           -8.69613422775292 	(obj:0)
STE(4,17)                            231.750101111126 	(obj:0)
STE(4,18)                            1649.55376466106 	(obj:0)
STE(4,19)                            231.750101111154 	(obj:0)
STE(4,20)                            1649.55376466109 	(obj:0)
STE(4,21)                                        1890 	(obj:0)
STE(4,22)                            3307.80366354994 	(obj:0)
STE(4,23)                            231.750101111205 	(obj:0)
STE(4,24)                            1649.55376466114 	(obj:0)
STE(4,25)                            1890.00000000002 	(obj:0)
STE(4,26)                            3307.80366354996 	(obj:0)
STE(4,27)                            1889.99999999998 	(obj:0)
STE(4,28)                            3307.80366354988 	(obj:0)
STE(4,29)                            3548.24989888876 	(obj:0)
STE(4,30)                             4966.0535624387 	(obj:0)
y1(3,11)                             1492.42490899996 	(obj:0)
y1(3,13)                             1492.42490899996 	(obj:0)
AVE(1)                               3265.91696791192 	(obj:0)
AVE(2)                               3332.74178563731 	(obj:0)
AVE(3)                               3444.11697932125 	(obj:0)
WB(4)                                3399.56511093778 	(obj:0)
AVE(4)                               3399.56511093778 	(obj:0)
WG(1)                                 3265.9169679118 	(obj:10)
WG(2)                                3332.74178563731 	(obj:10)
WG(3)                                3444.11697932125 	(obj:10)
BG(1)                                930.375531067768 	(obj:10)
BG(2)                                863.550713342282 	(obj:10)
BG(3)                                752.175519658342 	(obj:10)
BG(4)                                2222.59520548113 	(obj:10)
y1(1,1)                              1492.42490899994 	(obj:0)
y1(2,3)                              1492.42490899996 	(obj:0)
y1(2,5)                              1492.42490899989 	(obj:0)
y1(3,7)                              1492.42490899996 	(obj:0)
y1(3,9)                              1492.42490899996 	(obj:0)
